\ENCODING=ISO-8859-1
\Problem name: instances

Maximize
 obj:
Subject To
 c1: 188 x1 + 950 x2 + 34 x3 + 682 x4 + 977 x5 + 589 x6 + 538 x7 + 654 x8
     + 87 x9 + 561 x10 + 250 x11 + 284 x12 + 784 x13 + 227 x14 + 960 x15
     + 512 x16 + 295 x17 + 659 x18 + 465 x19 + 972 x20 + 814 x21 + 878 x22
     + 783 x23 + 885 x24 + 177 x25 + 521 x26 + 613 x27 + 577 x28 + 915 x29
     + 184 x30 + 264 x31 + 102 x32 + 134 x33 + 298 x34 + 784 x35 + 110 x36
     + 887 x37 + 321 x38 + 763 x39 + 974 x40 + 881 x41 + 13 x42 + 257 x43
     + 664 x44 + 239 x45 + 217 x46 + 176 x47 + 534 x48 + 876 x49 + 640 x50
     + 505 x51 + 690 x52 + 517 x53 + 287 x54 + 574 x55 + 694 x56 + 808 x57
     + 187 x58 + 270 x59 + 722 x60 + 371 x61 + 534 x62 + 824 x63 + 504 x64
     + 831 x65 + 607 x66 + 614 x67 + 717 x68 + 927 x69 + 377 x70 + 690 x71
     + 808 x72 + 389 x73 + 947 x74 + 472 x75 + 628 x76 + 164 x77 + 647 x78
     + 161 x79 + 39 x80 + 287 x81 + 666 x82 + 728 x83 + 803 x84 + 952 x85
     + 302 x86 + 497 x87 + 759 x88 + 489 x89 + 767 x90 + 481 x91 + 859 x92
     + 300 x93 + 304 x94 + 362 x95 + 130 x96 + 910 x97 + 976 x98 + 847 x99
     + 837 x100 <= 27455
Bounds
 0 <= x1 <= 1
 0 <= x2 <= 1
 0 <= x3 <= 1
 0 <= x4 <= 1
 0 <= x5 <= 1
 0 <= x6 <= 1
 0 <= x7 <= 1
 0 <= x8 <= 1
 0 <= x9 <= 1
 0 <= x10 <= 1
 0 <= x11 <= 1
 0 <= x12 <= 1
 0 <= x13 <= 1
 0 <= x14 <= 1
 0 <= x15 <= 1
 0 <= x16 <= 1
 0 <= x17 <= 1
 0 <= x18 <= 1
 0 <= x19 <= 1
 0 <= x20 <= 1
 0 <= x21 <= 1
 0 <= x22 <= 1
 0 <= x23 <= 1
 0 <= x24 <= 1
 0 <= x25 <= 1
 0 <= x26 <= 1
 0 <= x27 <= 1
 0 <= x28 <= 1
 0 <= x29 <= 1
 0 <= x30 <= 1
 0 <= x31 <= 1
 0 <= x32 <= 1
 0 <= x33 <= 1
 0 <= x34 <= 1
 0 <= x35 <= 1
 0 <= x36 <= 1
 0 <= x37 <= 1
 0 <= x38 <= 1
 0 <= x39 <= 1
 0 <= x40 <= 1
 0 <= x41 <= 1
 0 <= x42 <= 1
 0 <= x43 <= 1
 0 <= x44 <= 1
 0 <= x45 <= 1
 0 <= x46 <= 1
 0 <= x47 <= 1
 0 <= x48 <= 1
 0 <= x49 <= 1
 0 <= x50 <= 1
 0 <= x51 <= 1
 0 <= x52 <= 1
 0 <= x53 <= 1
 0 <= x54 <= 1
 0 <= x55 <= 1
 0 <= x56 <= 1
 0 <= x57 <= 1
 0 <= x58 <= 1
 0 <= x59 <= 1
 0 <= x60 <= 1
 0 <= x61 <= 1
 0 <= x62 <= 1
 0 <= x63 <= 1
 0 <= x64 <= 1
 0 <= x65 <= 1
 0 <= x66 <= 1
 0 <= x67 <= 1
 0 <= x68 <= 1
 0 <= x69 <= 1
 0 <= x70 <= 1
 0 <= x71 <= 1
 0 <= x72 <= 1
 0 <= x73 <= 1
 0 <= x74 <= 1
 0 <= x75 <= 1
 0 <= x76 <= 1
 0 <= x77 <= 1
 0 <= x78 <= 1
 0 <= x79 <= 1
 0 <= x80 <= 1
 0 <= x81 <= 1
 0 <= x82 <= 1
 0 <= x83 <= 1
 0 <= x84 <= 1
 0 <= x85 <= 1
 0 <= x86 <= 1
 0 <= x87 <= 1
 0 <= x88 <= 1
 0 <= x89 <= 1
 0 <= x90 <= 1
 0 <= x91 <= 1
 0 <= x92 <= 1
 0 <= x93 <= 1
 0 <= x94 <= 1
 0 <= x95 <= 1
 0 <= x96 <= 1
 0 <= x97 <= 1
 0 <= x98 <= 1
 0 <= x99 <= 1
 0 <= x100 <= 1
Binaries
 x1  x2  x3  x4  x5  x6  x7  x8  x9  x10  x11  x12  x13  x14  x15  x16  x17 
 x18  x19  x20  x21  x22  x23  x24  x25  x26  x27  x28  x29  x30  x31  x32 
 x33  x34  x35  x36  x37  x38  x39  x40  x41  x42  x43  x44  x45  x46  x47 
 x48  x49  x50  x51  x52  x53  x54  x55  x56  x57  x58  x59  x60  x61  x62 
 x63  x64  x65  x66  x67  x68  x69  x70  x71  x72  x73  x74  x75  x76  x77 
 x78  x79  x80  x81  x82  x83  x84  x85  x86  x87  x88  x89  x90  x91  x92 
 x93  x94  x95  x96  x97  x98  x99  x100 
End
